INCHIKEY: BEJNERDRQOWKJM-UHFFFAOYSA-N
NUM PEAKS: 23
69.0335     0.2916934779611726
69.0335     0.3607355404311171
69.0335     0.2847473987257497
69.0335     0.6382847385042254
69.0335     0.2899725574672267
83.0128     0.2346381364038145
97.0284     0.33632292980573464
97.0284     0.601133397309916
97.0284     0.27032031568691445
97.0284     0.27762758702455537
97.0284     0.26659158102061487
113.0233    0.22371868507134143
143.0335    1.0
143.0336    1.0
143.0336    1.0
143.0338    1.0
143.0339    1.0
143.0339    1.0
143.0339    1.0
143.0339    1.0
143.0339    1.0
143.0339    1.0
143.034     1.0

INCHIKEY: HRKAMJBPFPHCSD-UHFFFAOYSA-N
NUM PEAKS: 49
57.0694     0.6134952130020057
57.0698     0.3287979746107146
57.0705     0.2739983121755955
57.0706     0.27032031568691445
57.0708     0.22371868507134143
57.0709     0.3099937033168514
62.9626     0.33780780647302117
62.9629     0.3287979746107146
62.9631     0.4703416005641232
62.9632     0.29847795410899125
80.9733     0.6793095476006954
80.9734     1.0
80.9735     0.5764827250944579
80.9735     1.0
80.9737     0.9684719603261304
80.974      1.0
80.9746     0.3001501125938321
80.9748     0.31638599858416633
98.983      0.5169789814559846
98.9838     1.0
98.9841     1.0
98.9842     1.0
98.9842     1.0
98.9842     1.0
98.9842     1.0
98.9843     0.606108379225504
98.9845     1.0
98.9845     1.0
98.9845     0.8681899295394723
98.9845     1.0
98.9846     1.0
98.9846     1.0
98.9846     1.0
98.9846     1.0
98.9848     1.0
116.9952    0.5032427379041383
140.01      0.3770174294938394
155.0453    0.4137283784938751
155.0454    1.0
155.046     1.0
155.0464    1.0
155.0474    0.5773502691896257
155.0474    0.6895472974897918
156.0494    0.23249527748763857
156.0494    0.3287979746107146
211.1092    0.5062175977346661
211.1094    0.8635657159392942
212.1124    0.2899725574672267
267.1716    0.45848687027025126

INCHIKEY: GWVUTNGDMGTPFE-UHFFFAOYSA-N
NUM PEAKS: 125
57.07       0.3051116076013712
57.07       0.6207941570161444
57.0702     0.4173417953838007
57.0702     0.27581891899591676
57.0702     0.34222378222022665
57.0702     0.29340430481860025
57.0703     0.26280994857324
57.0703     0.4671383287830471
57.0704     0.2812100266332605
57.0705     0.3333333333333333
57.0706     0.22814918814681776
61.0295     0.22371868507134143
68.9972     0.2346381364038145
68.9973     0.5434107979193046
68.9974     0.8802129144558007
68.9975     1.0
68.9975     1.0
68.9976     1.0
68.9977     0.3634998378708471
68.998      0.2684624220856097
71.0491     0.5525443921580467
71.0491     0.512115477467985
71.0492     0.522755462212757
71.0493     0.6280082757371868
71.0493     0.9570349606549993
71.0493     0.5397140829099156
71.0493     0.5994658950760746
71.0493     0.7978951288462893
71.0494     0.7619583850713768
71.0494     0.35231253756306224
71.0495     0.6644105970267493
71.0498     0.4463173749689779
85.0291     0.2684624220856097
85.101      0.4451945621839941
85.101      0.32265167612164064
85.1011     0.3051116076013712
85.1011     0.4173417953838007
85.1012     0.6118614012784058
85.1014     0.3348314682226151
85.1015     0.32265167612164064
85.1015     0.4745789978762495
85.1018     0.31638599858416633
85.1019     0.3716693935988517
87.0074     0.24302069677099328
87.0079     0.3001501125938321
87.0082     0.3257393223209413
87.0083     0.34945975751454145
89.0592     0.4372541494270708
89.0593     0.2739983121755955
89.0593     0.37301359109171767
89.0593     0.3508890467414495
89.0596     0.41853933527826886
89.0598     0.4100831234861637
89.0598     0.3770174294938394
89.06       0.5659684799706785
89.06       0.5452497568062706
89.0607     0.2570332003186866
89.061      0.35231253756306224
111.0071    0.34222378222022665
111.0074    0.6741323716114325
111.0075    1.0
111.0076    0.3796631983009996
111.0076    0.32265167612164064
111.0076    0.701778093482899
111.0076    0.8920738735081282
111.0077    0.5986304021333684
111.0078    0.4714045207910317
111.0078    0.4962320487899247
111.0081    0.9828356759733369
129.0176    1.0
129.0178    0.9974943583775273
129.0179    0.6770956051093955
129.0179    1.0
129.018     0.8041434241767116
129.018     1.0
129.0181    1.0
129.0183    1.0
129.0183    0.6499403222007559
129.0184    1.0
129.0185    0.2450715406979359
129.0186    1.0
139.002     0.983853631374082
139.0021    0.6974858324629157
139.0021    0.5160099478365376
139.0021    0.7130978253427145
139.0023    0.7074605999633482
139.0023    0.7269996757416942
139.0024    0.5002501876563868
139.0026    0.7221644698553935
139.0026    0.5902104271769081
139.0026    0.7730443697470395
139.0027    0.6445272805827659
139.0028    0.8334834699588797
157.0119    0.4529958114654099
157.0124    0.26659158102061487
157.0125    0.9470464069394365
157.0127    0.6507099380088055
157.0131    0.3551424026022887
213.1113    0.8334834699588797
213.1113    0.8370786705565377
213.1115    0.6666666666666666
213.1118    0.26089857812580747
213.1119    0.429166848887684
213.1124    0.5650834622596199
214.1149    0.2721655269759087
214.1158    0.23676160173485913
241.1068    0.4921811071569512
241.1072    0.42329561677293465
245.0648    0.34945975751454145
245.0649    0.641413604011804
245.0654    0.6591164043129517
315.2156    0.6895472974897918
315.2161    0.4125168725884678
315.2163    0.8022740452262205
316.2191    0.23676160173485913
316.2199    0.2511236011669613
325.2014    0.23033248371224813
329.1583    0.5140664006373732
329.1591    0.7566852533071942
413.2519    0.41853933527826886
413.253     1.0
414.2561    0.34222378222022665
445.3148    0.483977514182461
445.3171    0.31953419551294054
515.3573    0.51503909100695

